tg_final/aeval/bench_horn_adt/log-2023-04-19-10-48-12/list_append_ass.smt2.out
((append _FH_0' _FH_1')=_FH_2')
(forall ((Lst)) ((append nil _FH_2')=_FH_2'))
(forall (INT (Lst) (Lst)) ((append (cons x _FH_0) _FH_1)=(cons x (append _FH_0 _FH_1))))
sat
